Route #1: 33 48 19 3 35
Route #2: 41 27 31 32 37 12 8
Route #3: 6 7 28 26 43 11
Route #4: 39 29 13 42 14 4
Route #5: 18
Route #6: 5 36 40 16 2 38 34 10 17
Route #7: 50 23 47 45 30 24 22 46 25
Route #8: 15 49 9 1 20 44 21
Cost 1016
Time 0.073339
